NAME : HealthcareRouting.24869.tour
COMMENT : Length = 24869
COMMENT : Found by LKH-3 [Keld Helsgaun] Sun Apr 20 17:07:38 2025
TYPE : TOUR
DIMENSION : 72
TOUR_SECTION
60
69
22
31
10
51
37
57
68
72
58
48
7
41
26
2
36
27
6
4
44
62
49
8
39
63
35
67
45
17
46
13
38
61
59
9
47
71
12
64
3
5
65
43
1
40
24
16
14
33
11
28
56
42
34
29
30
54
20
70
21
66
53
23
15
55
52
18
19
32
25
50
-1
EOF
